tsp_instances/TSP20/instance21.tsp
NODE_COORD_SECTION
0 169 193
1 73 42
2 134 18
3 140 109
4 95 148
5 160 107
6 178 83
7 69 114
8 2 16
9 31 115
10 126 130
11 36 36
12 128 66
13 92 142
14 32 132
15 193 195
16 128 14
17 16 159
18 115 180
19 92 113
