tsp_instances/TSP20/instance21.opt.tour
TOUR_SECTION
1
16
11
4
6
7
13
3
17
2
12
9
10
15
18
8
20
14
5
19
-1